c n orig vars 276
p cnf 600 1132
410 0
-432 433 0
-432 391 0
-432 435 0
432 -433 -391 -435 0
433 -106 0
433 -436 0
-433 106 436 0
576 -581 0
576 -28 0
-576 581 28 0
281 -193 0
281 -577 0
-281 193 577 0
-282 284 0
-282 281 0
-282 296 0
282 -284 -281 -296 0
283 -160 0
283 -130 0
283 -169 0
283 -124 0
-283 160 130 169 124 0
284 -190 0
284 -283 0
-284 190 283 0
285 -162 0
285 -161 0
285 -187 0
285 -186 0
285 -189 0
285 -188 0
285 -191 0
-285 162 161 187 186 189 188 191 0
286 -168 0
286 -171 0
286 -170 0
286 -165 0
286 -164 0
286 -167 0
286 -166 0
-286 168 171 170 165 164 167 166 0
-287 294 0
-287 323 0
287 -294 -323 0
-288 320 0
-288 298 0
288 -320 -298 0
289 -288 0
289 -287 0
-289 288 287 0
290 -475 0
290 -42 0
-290 475 42 0
291 -312 0
291 -313 0
-291 312 313 0
-292 293 0
-292 291 0
292 -293 -291 0
-293 41 0
293 -41 0
320 -43 0
320 -44 0
-320 43 44 0
-295 284 0
-295 281 0
-295 575 0
295 -284 -281 -575 0
296 -192 0
296 -571 0
-296 192 571 0
-298 40 0
298 -40 0
-525 24 0
525 -24 0
533 -535 0
533 -534 0
533 -61 0
533 -62 0
-533 535 534 61 62 0
-477 479 0
-477 480 0
477 -479 -480 0
388 -105 0
388 -440 0
-388 105 440 0
474 -475 0
474 -201 0
-474 475 201 0
-300 306 0
-300 302 0
-300 309 0
300 -306 -302 -309 0
301 -597 0
301 -596 0
-301 597 596 0
302 -600 0
302 -599 0
-302 600 599 0
-303 306 0
-303 302 0
-303 301 0
303 -306 -302 -301 0
304 -160 0
304 -130 0
304 -169 0
304 -124 0
-304 160 130 169 124 0
305 -174 0
305 -181 0
305 -133 0
305 -163 0
-305 174 181 133 163 0
306 -305 0
306 -304 0
-306 305 304 0
-308 306 0
-308 301 0
-308 309 0
308 -306 -301 -309 0
309 -594 0
309 -593 0
-309 594 593 0
310 -86 0
310 -335 0
-310 86 335 0
311 -129 0
311 -128 0
311 -316 0
311 -134 0
-311 129 128 316 134 0
589 -85 0
589 -334 0
-589 85 334 0
590 -129 0
590 -128 0
590 -310 0
590 -127 0
-590 129 128 310 127 0
314 -122 0
314 -583 0
-314 122 583 0
315 -387 0
315 -321 0
-315 387 321 0
316 -86 0
316 -334 0
-316 86 334 0
317 -131 0
317 -574 0
-317 131 574 0
-318 39 0
318 -39 0
319 -274 0
319 -273 0
319 -272 0
-319 274 273 272 0
-387 121 0
387 -121 0
321 -160 0
321 -130 0
321 -169 0
321 -124 0
-321 160 130 169 124 0
-322 580 0
322 -580 0
-323 83 0
323 -83 0
324 -244 0
324 -245 0
-324 244 245 0
325 -270 0
325 -498 0
-325 270 498 0
326 -12 0
326 -130 0
326 -261 0
326 -262 0
-326 12 130 261 262 0
327 -233 0
327 -232 0
-327 233 232 0
328 -231 0
328 -230 0
-328 231 230 0
329 -371 0
329 -364 0
329 -375 0
329 -366 0
-329 371 364 375 366 0
330 -333 0
330 -229 0
330 -228 0
330 -227 0
330 -332 0
-330 333 229 228 227 332 0
331 -257 0
331 -18 0
331 -258 0
331 -259 0
-331 257 18 258 259 0
332 -357 0
332 -388 0
-332 357 388 0
333 -401 0
333 -402 0
-333 401 402 0
334 -202 0
334 -203 0
-334 202 203 0
335 -236 0
335 -235 0
-335 236 235 0
444 -267 0
444 -347 0
-444 267 347 0
-339 144 0
339 -144 0
581 -26 0
581 -582 0
-581 26 582 0
436 -102 0
436 -138 0
-436 102 138 0
-340 177 0
340 -177 0
428 -579 0
428 -25 0
-428 579 25 0
494 -492 0
494 -493 0
494 -65 0
494 -66 0
-494 492 493 65 66 0
-341 142 0
341 -142 0
-342 344 0
-342 352 0
342 -344 -352 0
343 -342 0
343 -345 0
-343 342 345 0
344 -80 0
344 -79 0
-344 80 79 0
-345 412 0
-345 415 0
345 -412 -415 0
346 -348 0
346 -344 0
346 -351 0
346 -416 0
346 -412 0
-346 348 344 351 416 412 0
-457 312 0
-457 346 0
457 -312 -346 0
348 -429 0
348 -81 0
-348 429 81 0
-349 82 0
349 -82 0
350 -149 0
350 -126 0
-350 149 126 0
-351 78 0
351 -78 0
-352 77 0
352 -77 0
441 -390 0
441 -438 0
441 -432 0
441 -434 0
-441 390 438 432 434 0
353 -158 0
353 -159 0
353 -589 0
353 -172 0
-353 158 159 589 172 0
354 -94 0
354 -335 0
-354 94 335 0
355 -117 0
355 -535 0
-355 117 535 0
356 -92 0
356 -93 0
-356 92 93 0
547 -132 0
547 -361 0
547 -314 0
-547 132 361 314 0
358 -153 0
358 -150 0
358 -354 0
358 -151 0
-358 153 150 354 151 0
-359 353 0
-359 311 0
359 -353 -311 0
360 -119 0
360 -584 0
360 -317 0
-360 119 584 317 0
361 -152 0
361 -285 0
-361 152 285 0
-362 358 0
-362 590 0
362 -358 -590 0
363 -90 0
363 -91 0
-363 90 91 0
-364 592 0
-364 369 0
-364 367 0
364 -592 -369 -367 0
365 -266 0
365 -234 0
-365 266 234 0
-366 592 0
-366 368 0
-366 367 0
366 -592 -368 -367 0
367 -328 0
367 -331 0
-367 328 331 0
368 -365 0
368 -374 0
-368 365 374 0
369 -327 0
369 -326 0
-369 327 326 0
370 -160 0
370 -130 0
370 -169 0
370 -124 0
-370 160 130 169 124 0
-371 592 0
-371 368 0
-371 369 0
371 -592 -368 -369 0
-585 276 0
585 -276 0
-454 70 0
454 -70 0
513 -522 0
513 -521 0
-513 522 521 0
374 -15 0
374 -18 0
374 -17 0
374 -20 0
-374 15 18 17 20 0
-375 368 0
-375 369 0
-375 367 0
375 -368 -369 -367 0
579 -23 0
579 -580 0
-579 23 580 0
514 -12 0
514 -18 0
-514 12 18 0
-378 582 0
378 -582 0
-379 84 0
379 -84 0
515 -474 0
515 -479 0
515 -423 0
515 -422 0
515 -425 0
-515 474 479 423 422 425 0
347 -14 0
347 -126 0
-347 14 126 0
381 -379 0
381 -294 0
-381 379 294 0
-372 143 0
372 -143 0
-516 179 0
516 -179 0
383 -118 0
383 -537 0
-383 118 537 0
384 -210 0
384 -213 0
384 -211 0
384 -110 0
-384 210 213 211 110 0
-385 501 0
-385 437 0
385 -501 -437 0
-386 385 0
-386 573 0
386 -385 -573 0
357 -524 0
357 -539 0
357 -114 0
-357 524 539 114 0
517 -430 0
517 -562 0
517 -568 0
517 -565 0
517 -516 0
-517 430 562 568 565 516 0
389 -137 0
389 -138 0
-389 137 138 0
-390 391 0
-390 392 0
-390 435 0
390 -391 -392 -435 0
391 -101 0
391 -389 0
-391 101 389 0
392 -108 0
392 -439 0
-392 108 439 0
-518 515 0
-518 563 0
518 -515 -563 0
-395 404 0
-395 194 0
395 -404 -194 0
-396 405 0
-396 156 0
396 -405 -156 0
475 -160 0
475 -130 0
-475 160 130 0
-461 582 0
461 -582 0
397 -499 0
397 -99 0
-397 499 99 0
-399 453 0
-399 313 0
399 -453 -313 0
-400 399 0
-400 450 0
400 -399 -450 0
401 -485 0
401 -557 0
-401 485 557 0
402 -69 0
402 -403 0
-402 69 403 0
403 -97 0
403 -48 0
-403 97 48 0
404 -72 0
404 -580 0
-404 72 580 0
405 -71 0
405 -582 0
-405 71 582 0
406 -74 0
406 -395 0
406 -396 0
-406 74 395 396 0
407 -408 0
407 -466 0
407 -465 0
-407 408 466 465 0
-408 464 0
-408 463 0
408 -464 -463 0
410 -509 0
410 -221 0
410 -476 0
410 -222 0
410 -330 0
-410 509 221 476 222 330 0
-572 147 0
572 -147 0
412 -413 0
412 -324 0
412 -414 0
412 -322 0
-412 413 324 414 322 0
413 -271 0
413 -260 0
413 -272 0
-413 271 260 272 0
414 -269 0
414 -569 0
-414 269 569 0
-415 75 0
415 -75 0
-416 76 0
416 -76 0
-417 312 0
-417 343 0
417 -312 -343 0
-418 37 0
418 -37 0
419 -514 0
419 -38 0
-419 514 38 0
-420 580 0
420 -580 0
421 -111 0
421 -492 0
-421 111 492 0
422 -421 0
422 -420 0
422 -427 0
-422 421 420 427 0
505 -257 0
505 -18 0
-505 257 18 0
-424 209 0
424 -209 0
-425 205 0
425 -205 0
-426 208 0
426 -208 0
464 -35 0
464 -36 0
-464 35 36 0
336 -220 0
336 -449 0
-336 220 449 0
429 -15 0
429 -130 0
-429 15 130 0
430 -429 0
430 -183 0
-430 429 183 0
-559 178 0
559 -178 0
431 -55 0
431 -58 0
-431 55 58 0
-550 145 0
550 -145 0
524 -483 0
524 -518 0
524 -578 0
524 -386 0
524 -510 0
-524 483 518 578 386 510 0
-434 433 0
-434 391 0
-434 392 0
434 -433 -391 -392 0
435 -107 0
435 -587 0
-435 107 587 0
-277 148 0
277 -148 0
437 -511 0
437 -340 0
437 -523 0
437 -508 0
437 -372 0
-437 511 340 523 508 372 0
-438 433 0
-438 392 0
-438 435 0
438 -433 -392 -435 0
439 -104 0
439 -138 0
-439 104 138 0
440 -47 0
440 -48 0
-440 47 48 0
-578 501 0
-578 513 0
578 -501 -513 0
511 -514 0
511 -180 0
-511 514 180 0
580 -360 0
580 -363 0
580 -362 0
-580 360 363 362 0
445 -135 0
445 -120 0
445 -139 0
-445 135 120 139 0
446 -5 0
446 -2 0
446 -3 0
446 -8 0
446 -9 0
-446 5 2 3 8 9 0
447 -7 0
447 -10 0
447 -11 0
447 -254 0
447 -253 0
-447 7 10 11 254 253 0
448 -251 0
448 -250 0
448 -249 0
448 -248 0
448 -247 0
-448 251 250 249 248 247 0
449 -255 0
449 -223 0
449 -224 0
449 -225 0
449 -226 0
-449 255 223 224 225 226 0
450 -451 0
450 -443 0
450 -456 0
450 -455 0
450 -454 0
-450 451 443 456 455 454 0
451 -505 0
451 -29 0
-451 505 29 0
-452 32 0
452 -32 0
-470 33 0
470 -33 0
294 -319 0
294 -324 0
294 -325 0
294 -322 0
-294 319 324 325 322 0
455 -445 0
455 -468 0
455 -444 0
455 -461 0
-455 445 468 444 461 0
-456 67 0
456 -67 0
443 -30 0
443 -68 0
-443 30 68 0
-471 200 0
471 -200 0
-460 313 0
-460 407 0
460 -313 -407 0
582 -547 0
582 -356 0
582 -359 0
-582 547 356 359 0
532 -537 0
532 -536 0
532 -59 0
532 -60 0
-532 537 536 59 60 0
-472 471 0
-472 473 0
472 -471 -473 0
-463 34 0
463 -34 0
583 -202 0
583 -154 0
-583 202 154 0
-465 31 0
465 -31 0
466 -469 0
466 -468 0
466 -467 0
466 -461 0
-466 469 468 467 461 0
467 -268 0
467 -350 0
-467 268 350 0
468 -246 0
468 -245 0
-468 246 245 0
469 -275 0
469 -136 0
469 -139 0
-469 275 136 139 0
584 -155 0
584 -286 0
-584 155 286 0
459 -12 0
459 -130 0
459 -261 0
459 -262 0
-459 12 130 261 262 0
462 -377 0
462 -588 0
462 -520 0
462 -297 0
-462 377 588 520 297 0
-393 89 0
393 -89 0
540 -257 0
540 -18 0
540 -258 0
540 -259 0
-540 257 18 258 259 0
509 -411 0
509 -329 0
509 -595 0
509 -462 0
-509 411 329 595 462 0
476 -489 0
476 -478 0
476 -500 0
476 -503 0
-476 489 478 500 503 0
-489 542 0
-489 546 0
-489 394 0
489 -542 -546 -394 0
-478 542 0
-478 394 0
-478 544 0
478 -542 -394 -544 0
-500 546 0
-500 394 0
-500 544 0
500 -546 -394 -544 0
-503 542 0
-503 546 0
-503 544 0
503 -542 -546 -544 0
586 -383 0
586 -378 0
586 -384 0
-586 383 378 384 0
534 -199 0
534 -197 0
-534 199 197 0
483 -477 0
483 -495 0
-483 477 495 0
484 -243 0
484 -240 0
-484 243 240 0
485 -406 0
485 -526 0
485 -141 0
485 -529 0
485 -527 0
-485 406 526 141 529 527 0
486 -242 0
486 -240 0
-486 242 240 0
487 -238 0
487 -484 0
-487 238 484 0
488 -241 0
488 -240 0
-488 241 240 0
553 -237 0
553 -486 0
-553 237 486 0
490 -239 0
490 -240 0
-490 239 240 0
491 -95 0
491 -488 0
-491 95 488 0
492 -212 0
492 -219 0
-492 212 219 0
493 -27 0
493 -196 0
-493 27 196 0
-523 176 0
523 -176 0
-495 422 0
-495 426 0
495 -422 -426 0
496 -497 0
496 -98 0
-496 497 98 0
497 -533 0
497 -532 0
-497 533 532 0
498 -125 0
498 -126 0
-498 125 126 0
569 -123 0
569 -126 0
-569 123 126 0
-479 206 0
479 -206 0
-501 515 0
-501 517 0
501 -515 -517 0
-512 173 0
512 -173 0
-480 204 0
480 -204 0
573 -502 0
573 -572 0
573 -277 0
573 -586 0
573 -585 0
-573 502 572 277 586 585 0
508 -355 0
508 -378 0
508 -337 0
-508 355 378 337 0
499 -494 0
499 -570 0
-499 494 570 0
510 -472 0
510 -424 0
510 -512 0
510 -550 0
-510 472 424 512 550 0
-297 315 0
-297 373 0
-297 398 0
297 -315 -373 -398 0
299 -519 0
299 -459 0
-299 519 459 0
373 -382 0
373 -380 0
-373 382 380 0
-377 315 0
-377 373 0
-377 299 0
377 -315 -373 -299 0
380 -15 0
380 -18 0
380 -17 0
380 -20 0
-380 15 18 17 20 0
-382 87 0
382 -87 0
-588 315 0
-588 299 0
-588 398 0
588 -315 -299 -398 0
398 -393 0
398 -540 0
-398 393 540 0
-519 88 0
519 -88 0
-520 373 0
-520 299 0
-520 398 0
520 -373 -299 -398 0
-521 508 0
-521 339 0
521 -508 -339 0
-522 340 0
-522 341 0
522 -340 -341 0
442 -292 0
442 -349 0
442 -418 0
442 -452 0
-442 292 349 418 452 0
557 -289 0
557 -417 0
557 -460 0
557 -400 0
557 -442 0
-557 289 417 460 400 442 0
-526 404 0
-526 405 0
526 -404 -405 0
-527 73 0
527 -73 0
-528 482 0
-528 491 0
-528 553 0
528 -482 -491 -553 0
529 -528 0
529 -531 0
529 -530 0
529 -280 0
-529 528 531 530 280 0
-530 487 0
-530 482 0
-530 553 0
530 -487 -482 -553 0
-531 487 0
-531 491 0
-531 553 0
531 -487 -491 -553 0
482 -96 0
482 -490 0
-482 96 490 0
-280 487 0
-280 482 0
-280 491 0
280 -487 -482 -491 0
-566 428 0
-566 576 0
566 -428 -576 0
535 -45 0
535 -219 0
-535 45 219 0
536 -113 0
536 -197 0
-536 113 197 0
537 -46 0
537 -219 0
-537 46 219 0
538 -566 0
538 -555 0
538 -481 0
-538 566 555 481 0
539 -140 0
539 -1 0
539 -441 0
539 -538 0
539 -525 0
-539 140 1 441 538 525 0
507 -545 0
507 -56 0
-507 545 56 0
541 -55 0
541 -58 0
-541 55 58 0
542 -543 0
542 -507 0
542 -541 0
-542 543 507 541 0
543 -57 0
543 -52 0
543 -160 0
543 -130 0
-543 57 52 160 130 0
544 -278 0
544 -458 0
544 -431 0
-544 278 458 431 0
545 -6 0
545 -446 0
-545 6 446 0
546 -552 0
546 -551 0
546 -549 0
-546 552 551 549 0
394 -560 0
394 -548 0
394 -307 0
-394 560 548 307 0
453 -419 0
453 -464 0
453 -470 0
-453 419 464 470 0
552 -15 0
552 -130 0
552 -51 0
552 -54 0
-552 15 130 51 54 0
551 -504 0
551 -56 0
-551 504 56 0
554 -218 0
554 -219 0
-554 218 219 0
473 -515 0
473 -501 0
-473 515 501 0
-555 579 0
-555 397 0
555 -579 -397 0
556 -100 0
556 -196 0
-556 100 196 0
558 -215 0
558 -214 0
558 -109 0
558 -110 0
-558 215 214 109 110 0
-423 207 0
423 -207 0
-561 565 0
-561 559 0
561 -565 -559 0
-562 182 0
562 -182 0
563 -564 0
563 -561 0
-563 564 561 0
-564 562 0
-564 567 0
564 -562 -567 0
565 -338 0
565 -420 0
565 -558 0
-565 338 420 558 0
338 -112 0
338 -554 0
-338 112 554 0
-567 184 0
567 -184 0
-568 185 0
568 -185 0
502 -505 0
502 -146 0
-502 505 146 0
570 -554 0
570 -556 0
570 -63 0
570 -64 0
-570 554 556 63 64 0
-481 581 0
-481 496 0
481 -581 -496 0
337 -217 0
337 -216 0
337 -211 0
337 -110 0
-337 217 216 211 110 0
427 -115 0
427 -116 0
427 -109 0
427 -110 0
-427 115 116 109 110 0
571 -12 0
571 -130 0
571 -261 0
571 -262 0
-571 12 130 261 262 0
411 -282 0
411 -279 0
411 -506 0
411 -295 0
-411 282 279 506 295 0
376 -257 0
376 -18 0
376 -258 0
376 -259 0
-376 257 18 258 259 0
574 -236 0
574 -157 0
-574 236 157 0
575 -195 0
575 -376 0
-575 195 376 0
-279 284 0
-279 296 0
-279 575 0
279 -284 -296 -575 0
577 -15 0
577 -18 0
577 -17 0
577 -20 0
-577 15 18 17 20 0
-506 281 0
-506 296 0
-506 575 0
506 -281 -296 -575 0
409 -256 0
409 -448 0
-409 256 448 0
307 -55 0
307 -58 0
-307 55 58 0
458 -336 0
458 -56 0
-458 336 56 0
278 -49 0
278 -4 0
278 -257 0
278 -18 0
-278 49 4 257 18 0
504 -252 0
504 -447 0
-504 252 447 0
549 -55 0
549 -58 0
-549 55 58 0
548 -409 0
548 -56 0
-548 409 56 0
560 -53 0
560 -50 0
560 -12 0
560 -18 0
-560 53 50 12 18 0
587 -103 0
587 -138 0
-587 103 138 0
312 -320 0
312 -318 0
312 -290 0
-312 320 318 290 0
313 -381 0
313 -457 0
-313 381 457 0
591 -198 0
591 -265 0
-591 198 265 0
592 -591 0
592 -370 0
-592 591 370 0
593 -257 0
593 -18 0
593 -258 0
593 -259 0
-593 257 18 258 259 0
594 -263 0
594 -22 0
594 -264 0
594 -13 0
-594 263 22 264 13 0
595 -303 0
595 -308 0
595 -598 0
595 -300 0
-595 303 308 598 300 0
596 -12 0
596 -130 0
596 -261 0
596 -262 0
-596 12 130 261 262 0
597 -19 0
597 -22 0
597 -21 0
597 -13 0
-597 19 22 21 13 0
-598 302 0
-598 301 0
-598 309 0
598 -302 -301 -309 0
599 -15 0
599 -18 0
599 -17 0
599 -20 0
-599 15 18 17 20 0
600 -175 0
600 -181 0
600 -16 0
600 -163 0
-600 175 181 16 163 0
